data/solutions/recovery/wellformed/moderate/binding/wellformed_moderate_instance89/46.sol
Elapsed time: 0.02
Upper bound: 7877.0
Planning weighted value: 466343.0
C[0]=7877.0
C[1]=7613.0
C[2]=7439.0
C[3]=7157.0
C[4]=6691.0
C[5]=6586.0
y[0]=2
y[1]=5
y[2]=0
y[3]=3
y[4]=4
y[5]=1
y[6]=0
y[7]=5
y[8]=2
y[9]=2
y[10]=3
y[11]=0
y[12]=3
y[13]=3
y[14]=4
y[15]=1
y[16]=4
y[17]=1
y[18]=5
y[19]=4
y[20]=0
y[21]=2
y[22]=3
y[23]=0
y[24]=3
y[25]=2
y[26]=3
y[27]=3
y[28]=1
y[29]=2
y[30]=2
y[31]=4
y[32]=3
y[33]=0
y[34]=4
y[35]=0
y[36]=1
y[37]=5
y[38]=5
y[39]=1
y[40]=1
y[41]=0
