data/solutions/recovery/wellformed/moderate/binding/wellformed_moderate_instance89/46.log

Log started (V12.6.3.0) Fri Apr 20 17:49:31 2018

New value for default parallel thread count: 1

Problem '/tmp/tmp5dik5E.pyomo.lp' read.
Read time = 0.00 sec. (0.13 ticks)

Problem name         : /tmp/tmp5dik5E.pyomo.lp
Objective sense      : Minimize
Variables            :     260  [Nneg: 1,  Binary: 252,  General Integer: 7]
Objective nonzeros   :       1
Linear constraints   :      97  [Less: 48,  Equal: 49]
  Nonzeros           :    8917
  RHS nonzeros       :      43

Variables            : Min LB: 0.000000         Max UB: 1.000000       
Objective nonzeros   : Min   : 1.000000         Max   : 1.000000       
Linear constraints   :
  Nonzeros           : Min   : 1.000000         Max   : 1980.000       
  RHS nonzeros       : Min   : 1.000000         Max   : 1.000000       
Tried aggregator 2 times.
MIP Presolve eliminated 83 rows and 241 columns.
MIP Presolve modified 2 coefficients.
Aggregator did 6 substitutions.
Reduced MIP has 8 rows, 13 columns, and 30 nonzeros.
Reduced MIP has 12 binaries, 1 generals, 0 SOSs, and 0 indicators.
Presolve time = 0.00 sec. (0.62 ticks)
Found incumbent of value 10489.000000 after 0.00 sec. (0.84 ticks)
Probing time = 0.00 sec. (0.01 ticks)
Cover probing fixed 0 vars, tightened 1 bounds.
Tried aggregator 1 time.
MIP Presolve modified 2 coefficients.
Reduced MIP has 8 rows, 13 columns, and 30 nonzeros.
Reduced MIP has 12 binaries, 1 generals, 0 SOSs, and 0 indicators.
Presolve time = 0.00 sec. (0.02 ticks)
Probing time = 0.00 sec. (0.01 ticks)
Clique table members: 2.
MIP emphasis: balance optimality and feasibility.
MIP search method: dynamic search.
Parallel mode: none, using 1 thread.
Root relaxation solution time = 0.00 sec. (0.01 ticks)

        Nodes                                         Cuts/
   Node  Left     Objective  IInf  Best Integer    Best Bound    ItCnt     Gap

*     0+    0                        10489.0000     7613.0000            27.42%
      0     0     7613.0000     6    10489.0000     7613.0000        6   27.42%
*     0+    0                         8199.0000     7613.0000             7.15%
      0     0     7725.8089     5     8199.0000       Cuts: 8       11    5.77%
*     0+    0                         8128.0000     7725.8089             4.95%
      0     0     7855.0938     6     8128.0000       Cuts: 5       18    3.36%
*     0+    0                         7877.0000     7855.0938             0.28%
      0     0        cutoff           7877.0000     7855.0938       18    0.28%
Elapsed time = 0.00 sec. (1.10 ticks, tree = 0.01 MB, solutions = 4)

Clique cuts applied:  2
Implied bound cuts applied:  1
Mixed integer rounding cuts applied:  1
Gomory fractional cuts applied:  1

Root node processing (before b&c):
  Real time             =    0.00 sec. (1.11 ticks)
Sequential b&c:
  Real time             =    0.00 sec. (0.00 ticks)
                          ------------
Total (root+branch&cut) =    0.00 sec. (1.11 ticks)

Solution pool: 4 solutions saved.

MIP - Integer optimal solution:  Objective =  7.8770000000e+03
Solution time =    0.01 sec.  Iterations = 18  Nodes = 0
Deterministic time = 1.11 ticks  (221.27 ticks/sec)


Incumbent solution written to file '/tmp/tmp3D4iUH.cplex.sol'.

Log started (V12.6.3.0) Fri Apr 20 17:52:35 2018

New value for default parallel thread count: 1

Problem '/tmp/tmpKPWHcY.pyomo.lp' read.
Read time = 0.00 sec. (0.13 ticks)

Problem name         : /tmp/tmpKPWHcY.pyomo.lp
Objective sense      : Minimize
Variables            :     260  [Nneg: 1,  Binary: 252,  General Integer: 7]
Objective nonzeros   :       1
Linear constraints   :      97  [Less: 48,  Equal: 49]
  Nonzeros           :    8917
  RHS nonzeros       :      43

Variables            : Min LB: 0.000000         Max UB: 1.000000       
Objective nonzeros   : Min   : 1.000000         Max   : 1.000000       
Linear constraints   :
  Nonzeros           : Min   : 1.000000         Max   : 1980.000       
  RHS nonzeros       : Min   : 1.000000         Max   : 1.000000       
Tried aggregator 2 times.
MIP Presolve eliminated 83 rows and 241 columns.
MIP Presolve modified 2 coefficients.
Aggregator did 6 substitutions.
Reduced MIP has 8 rows, 13 columns, and 30 nonzeros.
Reduced MIP has 12 binaries, 1 generals, 0 SOSs, and 0 indicators.
Presolve time = 0.00 sec. (0.62 ticks)
Found incumbent of value 10489.000000 after 0.00 sec. (0.84 ticks)
Probing time = 0.00 sec. (0.01 ticks)
Cover probing fixed 0 vars, tightened 1 bounds.
Tried aggregator 1 time.
MIP Presolve modified 2 coefficients.
Reduced MIP has 8 rows, 13 columns, and 30 nonzeros.
Reduced MIP has 12 binaries, 1 generals, 0 SOSs, and 0 indicators.
Presolve time = 0.00 sec. (0.02 ticks)
Probing time = 0.00 sec. (0.01 ticks)
Clique table members: 2.
MIP emphasis: balance optimality and feasibility.
MIP search method: dynamic search.
Parallel mode: none, using 1 thread.
Root relaxation solution time = 0.00 sec. (0.01 ticks)

        Nodes                                         Cuts/
   Node  Left     Objective  IInf  Best Integer    Best Bound    ItCnt     Gap

*     0+    0                        10489.0000     7613.0000            27.42%
      0     0     7613.0000     6    10489.0000     7613.0000        6   27.42%
*     0+    0                         8199.0000     7613.0000             7.15%
      0     0     7725.8089     5     8199.0000       Cuts: 8       11    5.77%
*     0+    0                         8128.0000     7725.8089             4.95%
      0     0     7855.0938     6     8128.0000       Cuts: 5       18    3.36%
*     0+    0                         7877.0000     7855.0938             0.28%
      0     0        cutoff           7877.0000     7855.0938       18    0.28%
Elapsed time = 0.00 sec. (1.10 ticks, tree = 0.01 MB, solutions = 4)

Clique cuts applied:  2
Implied bound cuts applied:  1
Mixed integer rounding cuts applied:  1
Gomory fractional cuts applied:  1

Root node processing (before b&c):
  Real time             =    0.00 sec. (1.11 ticks)
Sequential b&c:
  Real time             =    0.00 sec. (0.00 ticks)
                          ------------
Total (root+branch&cut) =    0.00 sec. (1.11 ticks)

Solution pool: 4 solutions saved.

MIP - Integer optimal solution:  Objective =  7.8770000000e+03
Solution time =    0.00 sec.  Iterations = 18  Nodes = 0
Deterministic time = 1.11 ticks  (333.88 ticks/sec)


Incumbent solution written to file '/tmp/tmppNkIhK.cplex.sol'.
